100
128
32
9
32
19
58
38
28
29
14
43
54
51
32
42
50
47
53
8
11
10
47
46
20
14
3
58
14
54
52
52
34
19
1
43
53
28
64
28
14
14
50
14
13
43
3
12
16
43
47
1
2
14
1
3
1
1
37
18
37
45
53
12
14
3
34
2
57
12
24
26
18
27
21
17
3
59
19
27
3
64
28
15
51
15
2
33
1
5
16
20
32
44
23
20
63
5
31
3
33
22